(set-logic QF_S)
(declare-fun var0 () String)
(assert (RegexIn var0 (RegexConcat (RegexStar (RegexUnion (RegexPlus (RegexUnion (RegexUnion (RegexStar (RegexPlus (RegexUnion (RegexPlus (RegexPlus (RegexPlus (Str2Reg "000")))) (RegexPlus (RegexStar (RegexPlus (Str2Reg "11"))))))) (RegexStar (RegexUnion (RegexStar (RegexPlus (RegexStar (RegexUnion (Str2Reg "22") (Str2Reg "3"))))) (RegexStar (RegexStar (RegexStar (RegexStar (Str2Reg "4")))))))) (RegexUnion (RegexPlus (RegexPlus (RegexUnion (RegexUnion (RegexStar (RegexPlus (Str2Reg "5"))) (RegexStar (RegexPlus (Str2Reg "66")))) (RegexUnion (RegexPlus (RegexStar (Str2Reg "77"))) (RegexPlus (RegexPlus (Str2Reg "8"))))))) (RegexPlus (RegexPlus (RegexUnion (RegexPlus (RegexPlus (RegexPlus (Str2Reg "99")))) (RegexPlus (RegexStar (RegexUnion (Str2Reg "aaa") (Str2Reg "bb")))))))))) (RegexPlus (RegexStar (RegexStar (RegexStar (RegexStar (RegexUnion (RegexUnion (RegexStar (RegexStar (Str2Reg "ccc"))) (RegexStar (RegexPlus (Str2Reg "dd")))) (RegexUnion (RegexUnion (RegexUnion (Str2Reg "ee") (Str2Reg "ff")) (RegexUnion (Str2Reg "ggg") (Str2Reg "h"))) (RegexUnion (RegexStar (Str2Reg "ii")) (RegexStar (Str2Reg "jj")))))))))))) (RegexPlus (RegexUnion (RegexStar (RegexUnion (RegexUnion (RegexStar (RegexStar (RegexPlus (RegexStar (RegexUnion (RegexUnion (Str2Reg "kkk") (Str2Reg "lll")) (RegexUnion (Str2Reg "mm") (Str2Reg "nn"))))))) (RegexStar (RegexStar (RegexUnion (RegexPlus (RegexStar (RegexUnion (Str2Reg "ooo") (Str2Reg "pp")))) (RegexPlus (RegexStar (RegexUnion (Str2Reg "qq") (Str2Reg "rrr")))))))) (RegexUnion (RegexUnion (RegexPlus (RegexUnion (RegexUnion (RegexStar (RegexPlus (Str2Reg "sss"))) (RegexStar (RegexPlus (Str2Reg "ttt")))) (RegexUnion (RegexUnion (RegexUnion (Str2Reg "uuu") (Str2Reg "vvv")) (RegexUnion (Str2Reg "ww") (Str2Reg "xxx"))) (RegexUnion (RegexPlus (Str2Reg "yyy")) (RegexPlus (Str2Reg "z")))))) (RegexPlus (RegexUnion (RegexUnion (RegexStar (RegexUnion (Str2Reg "AAA") (Str2Reg "BBB"))) (RegexStar (RegexUnion (Str2Reg "CC") (Str2Reg "D")))) (RegexUnion (RegexStar (RegexStar (Str2Reg "EE"))) (RegexStar (RegexStar (Str2Reg "F"))))))) (RegexUnion (RegexPlus (RegexPlus (RegexUnion (RegexUnion (RegexPlus (Str2Reg "GGG")) (RegexPlus (Str2Reg "HH"))) (RegexUnion (RegexUnion (Str2Reg "III") (Str2Reg "JJ")) (RegexUnion (Str2Reg "KKK") (Str2Reg "LLL")))))) (RegexPlus (RegexUnion (RegexStar (RegexPlus (RegexPlus (Str2Reg "M")))) (RegexStar (RegexUnion (RegexStar (Str2Reg "NNN")) (RegexStar (Str2Reg "O")))))))))) (RegexStar (RegexStar (RegexStar (RegexStar (RegexUnion (RegexUnion (RegexPlus (RegexPlus (RegexPlus (Str2Reg "PPP")))) (RegexPlus (RegexPlus (RegexStar (Str2Reg "QQ"))))) (RegexUnion (RegexStar (RegexStar (RegexPlus (Str2Reg "RR")))) (RegexStar (RegexUnion (RegexStar (Str2Reg "SS")) (RegexStar (Str2Reg "T")))))))))))))))
(assert (<= 15 (Length var0)))
(check-sat)